num_asignaturas = 40;
num_salas = 3;
prioridad = [9, 3, 3, 5, 5, 5, 6, 9, 8, 5, 2, 4, 3, 3, 2, 4, 10, 2, 5, 1, 3, 3, 3, 5, 8, 4, 5, 3, 2, 8, 4, 10, 3, 5, 5, 5, 4, 1, 5, 3];
cantidad de alumnos = [77, 47, 67, 51, 48, 74, 79, 68, 49, 70, 67, 72, 48, 42, 41, 64, 58, 42, 43, 61, 62, 41, 60, 72, 48, 53, 71, 77, 56, 41, 68, 69, 48, 49, 73, 78, 80, 66, 56, 61];
capacidad = [46, 51, 49];
tipo_bloque = [0, 1, 1, 0, 1, 0, 1, 1, 0, 1, 0, 1, 1, 1, 0, 1, 1, 1, 1, 1, 1, 1, 1, 1, 1, 0, 0, 1, 1, 1, 1, 1, 1, 1, 1, 1, 1, 0, 1, 1];
bloques_restriccion = [|
 [(Miercoles, 7), (Jueves, 2), (Viernes, 2), (Miercoles, 2), (Martes, 3), (Viernes, 6), (Miercoles, 4), (Lunes, 2), (Martes, 2), (Viernes, 3), (Lunes, 4), (Jueves, 5), (Jueves, 4), (Viernes, 7), (Lunes, 5), (Martes, 5), (Jueves, 1), (Martes, 6), (Lunes, 7), (Lunes, 3)],
 [(Lunes, 1), (Martes, 6), (Miercoles, 4), (Jueves, 4), (Viernes, 2), (Viernes, 6), (Martes, 5), (Martes, 4), (Martes, 3), (Jueves, 1), (Miercoles, 2), (Jueves, 3), (Lunes, 4), (Miercoles, 3)],
 [(Martes, 2), (Lunes, 2), (Martes, 1), (Lunes, 4), (Martes, 5), (Martes, 6), (Viernes, 1), (Lunes, 5), (Viernes, 5), (Lunes, 3), (Jueves, 5), (Miercoles, 1), (Lunes, 6), (Martes, 4), (Miercoles, 5), (Viernes, 2), (Jueves, 3)],
 [(Lunes, 4), (Martes, 3), (Lunes, 6), (Viernes, 4), (Jueves, 5), (Jueves, 7), (Martes, 1), (Viernes, 3), (Miercoles, 7), (Viernes, 7), (Viernes, 2), (Miercoles, 4), (Lunes, 1), (Jueves, 2), (Martes, 6), (Jueves, 6)],
 [(Martes, 4), (Lunes, 5), (Miercoles, 1), (Miercoles, 3), (Miercoles, 6), (Viernes, 5), (Martes, 6), (Martes, 5), (Lunes, 3), (Viernes, 4), (Viernes, 3), (Jueves, 6), (Jueves, 3)],
 [(Miercoles, 2), (Martes, 5), (Martes, 7), (Viernes, 1), (Jueves, 5), (Jueves, 1), (Martes, 6), (Viernes, 2), (Martes, 3), (Jueves, 4), (Lunes, 5), (Jueves, 2), (Miercoles, 7), (Lunes, 3), (Lunes, 1), (Lunes, 7), (Lunes, 6), (Viernes, 6), (Viernes, 3)],
 [(Jueves, 1), (Jueves, 5), (Viernes, 4), (Jueves, 3), (Miercoles, 4), (Viernes, 2), (Martes, 4), (Miercoles, 2)],
 [(Lunes, 5), (Martes, 3), (Martes, 4), (Miercoles, 5), (Lunes, 6), (Jueves, 5), (Viernes, 5), (Lunes, 2), (Miercoles, 1), (Viernes, 4), (Viernes, 1), (Viernes, 6), (Martes, 1), (Jueves, 6), (Jueves, 3), (Miercoles, 2), (Jueves, 4), (Miercoles, 6)],
 [(Jueves, 3), (Viernes, 3), (Lunes, 7), (Lunes, 3), (Martes, 5), (Lunes, 2), (Jueves, 7), (Jueves, 1), (Martes, 1), (Lunes, 5), (Miercoles, 1)],
 [(Viernes, 3), (Viernes, 4), (Lunes, 4), (Jueves, 1), (Miercoles, 5), (Viernes, 1), (Lunes, 6), (Martes, 4), (Miercoles, 3), (Martes, 1), (Martes, 6), (Jueves, 2), (Jueves, 6)],
 [(Martes, 1), (Jueves, 5), (Viernes, 6), (Miercoles, 4), (Miercoles, 1), (Viernes, 7), (Viernes, 2), (Jueves, 3), (Viernes, 1), (Lunes, 7), (Miercoles, 6), (Jueves, 2), (Martes, 2), (Miercoles, 7), (Lunes, 2), (Lunes, 5), (Martes, 3), (Lunes, 1), (Miercoles, 3), (Jueves, 7)],
 [(Miercoles, 1), (Martes, 4), (Lunes, 2), (Viernes, 5), (Viernes, 3), (Lunes, 5), (Martes, 3), (Viernes, 1), (Viernes, 2), (Jueves, 4), (Jueves, 5), (Viernes, 4), (Jueves, 3)],
 [(Miercoles, 2), (Lunes, 1), (Jueves, 5), (Viernes, 5), (Lunes, 3), (Martes, 4), (Lunes, 5), (Martes, 1), (Viernes, 3), (Jueves, 1), (Viernes, 6), (Miercoles, 4)],
 [(Martes, 2), (Viernes, 3), (Viernes, 4), (Viernes, 5), (Viernes, 1), (Martes, 3), (Jueves, 2), (Lunes, 2)],
 [(Lunes, 3), (Miercoles, 2), (Jueves, 2), (Miercoles, 4), (Martes, 2), (Jueves, 7), (Lunes, 4), (Martes, 5), (Miercoles, 1), (Jueves, 1), (Miercoles, 7)],
 [(Lunes, 3), (Martes, 5), (Miercoles, 2), (Viernes, 5), (Viernes, 3), (Lunes, 5), (Martes, 1), (Miercoles, 4)],
 [(Viernes, 4), (Lunes, 2), (Martes, 3), (Jueves, 4), (Viernes, 5), (Viernes, 2), (Martes, 1), (Miercoles, 3), (Lunes, 1), (Miercoles, 5), (Miercoles, 2), (Martes, 2), (Miercoles, 4), (Viernes, 6), (Lunes, 6), (Lunes, 3), (Jueves, 6)],
 [(Viernes, 3), (Lunes, 5), (Viernes, 2), (Martes, 6), (Jueves, 5), (Miercoles, 6), (Jueves, 6), (Jueves, 4), (Martes, 2), (Miercoles, 1), (Martes, 4), (Jueves, 1)],
 [(Miercoles, 1), (Martes, 1), (Viernes, 4), (Viernes, 2), (Miercoles, 2), (Jueves, 5), (Viernes, 5)],
 [(Miercoles, 3), (Miercoles, 1), (Viernes, 2), (Jueves, 1), (Lunes, 2), (Miercoles, 2), (Jueves, 6), (Martes, 6), (Martes, 3), (Jueves, 2), (Jueves, 4), (Viernes, 3), (Lunes, 4), (Lunes, 5), (Jueves, 3), (Miercoles, 5), (Martes, 5)],
 [(Jueves, 5), (Martes, 5), (Jueves, 6), (Jueves, 2), (Viernes, 3), (Viernes, 1), (Lunes, 6), (Lunes, 3), (Jueves, 3), (Lunes, 5), (Martes, 1), (Miercoles, 3), (Miercoles, 4), (Viernes, 4), (Martes, 4), (Lunes, 2), (Miercoles, 5), (Martes, 3), (Viernes, 5)],
 [(Lunes, 4), (Viernes, 5), (Lunes, 2), (Miercoles, 3), (Lunes, 6), (Viernes, 2), (Miercoles, 6), (Miercoles, 2), (Jueves, 2), (Miercoles, 1)],
 [(Viernes, 3), (Miercoles, 4), (Miercoles, 2), (Martes, 6), (Viernes, 5), (Miercoles, 5), (Viernes, 4), (Viernes, 6), (Lunes, 4), (Lunes, 6), (Lunes, 3), (Jueves, 2), (Miercoles, 6), (Jueves, 1), (Viernes, 1), (Jueves, 5)],
 [(Viernes, 2), (Miercoles, 2), (Miercoles, 6), (Martes, 6), (Jueves, 6), (Viernes, 6), (Viernes, 3), (Jueves, 3), (Martes, 3), (Jueves, 4), (Lunes, 5), (Jueves, 5), (Viernes, 5), (Martes, 5), (Lunes, 2), (Miercoles, 5), (Lunes, 3)],
 [(Lunes, 2), (Martes, 3), (Jueves, 2), (Viernes, 5), (Jueves, 3), (Viernes, 6), (Martes, 2), (Viernes, 4), (Lunes, 4), (Martes, 6), (Jueves, 1), (Miercoles, 4), (Martes, 5), (Viernes, 3), (Lunes, 6), (Lunes, 1), (Jueves, 5), (Jueves, 6), (Miercoles, 3)],
 [(Miercoles, 7), (Jueves, 1), (Miercoles, 6), (Viernes, 7), (Jueves, 6), (Lunes, 4), (Martes, 4), (Martes, 3)],
 [(Jueves, 5), (Jueves, 4), (Jueves, 2), (Lunes, 6), (Viernes, 3), (Viernes, 5), (Jueves, 7), (Martes, 4), (Miercoles, 4), (Martes, 5), (Jueves, 1), (Lunes, 1), (Martes, 6), (Lunes, 3), (Viernes, 2), (Miercoles, 7), (Martes, 7), (Miercoles, 3), (Lunes, 2), (Viernes, 4)],
 [(Lunes, 5), (Miercoles, 5), (Lunes, 2), (Jueves, 3), (Miercoles, 6), (Jueves, 4), (Miercoles, 4), (Viernes, 6), (Miercoles, 3), (Martes, 4), (Viernes, 1)],
 [(Viernes, 5), (Lunes, 2), (Lunes, 6), (Miercoles, 1), (Viernes, 3), (Martes, 3), (Miercoles, 6), (Miercoles, 5)],
 [(Miercoles, 3), (Miercoles, 1), (Jueves, 3), (Jueves, 2), (Viernes, 4), (Jueves, 6), (Martes, 6), (Lunes, 5), (Lunes, 2), (Martes, 2), (Miercoles, 5), (Jueves, 4)],
 [(Martes, 6), (Martes, 1), (Lunes, 1), (Miercoles, 2), (Martes, 4), (Miercoles, 6), (Lunes, 5), (Martes, 5), (Jueves, 5), (Jueves, 1)],
 [(Miercoles, 4), (Viernes, 2), (Viernes, 3), (Jueves, 4), (Jueves, 3), (Lunes, 6), (Jueves, 6), (Lunes, 1), (Viernes, 4), (Miercoles, 1), (Viernes, 5)],
 [(Jueves, 4), (Lunes, 3), (Lunes, 2), (Miercoles, 3), (Martes, 3), (Lunes, 1), (Viernes, 4), (Miercoles, 4), (Lunes, 5), (Viernes, 3)],
 [(Lunes, 1), (Jueves, 5), (Martes, 5), (Martes, 3), (Jueves, 3), (Viernes, 5), (Miercoles, 3), (Martes, 6), (Lunes, 5), (Viernes, 3), (Miercoles, 6), (Martes, 4), (Viernes, 4), (Miercoles, 4)],
 [(Jueves, 5), (Martes, 5), (Miercoles, 6), (Martes, 6), (Jueves, 6), (Jueves, 2), (Lunes, 2), (Viernes, 1), (Jueves, 1), (Viernes, 3), (Viernes, 5), (Lunes, 4), (Lunes, 6), (Martes, 2), (Jueves, 4), (Martes, 1), (Viernes, 4), (Lunes, 1), (Jueves, 3)],
 [(Martes, 6), (Viernes, 5), (Martes, 3), (Miercoles, 2), (Miercoles, 6), (Viernes, 6), (Martes, 5), (Jueves, 2), (Lunes, 6), (Jueves, 6), (Viernes, 3), (Jueves, 5), (Jueves, 1), (Miercoles, 1)],
 [(Miercoles, 5), (Martes, 2), (Martes, 1), (Martes, 4), (Jueves, 6), (Viernes, 2), (Jueves, 2)],
 [(Jueves, 3), (Miercoles, 6), (Lunes, 4), (Lunes, 5), (Miercoles, 7), (Jueves, 7), (Lunes, 1)],
 [(Martes, 1), (Miercoles, 6), (Viernes, 1), (Jueves, 4), (Lunes, 6), (Viernes, 4), (Jueves, 6)],
 [(Lunes, 6), (Miercoles, 6), (Jueves, 1), (Jueves, 4), (Martes, 5), (Lunes, 1), (Viernes, 4), (Viernes, 1), (Lunes, 4), (Miercoles, 3), (Miercoles, 4), (Miercoles, 5), (Martes, 1), (Lunes, 5)],
|];
